Cost: 495
0-5-37-15-44-42-17-12-0
0-6-23-43-7-26-31-8-27-0
0-38-9-10-39-30-34-21-29-16-11-0
0-18-4-19-40-41-13-25-14-0
0-1-22-28-3-36-35-20-2-32-0
Cost: 495
0-5-37-15-44-42-17-12-0
0-6-23-43-7-26-31-8-27-0
0-38-9-10-39-30-34-21-29-16-11-0
0-18-4-19-40-41-13-25-14-0
0-1-22-28-3-36-35-20-2-32-0
Cost: 495
0-5-37-15-44-42-17-12-0
0-6-23-43-7-26-31-8-27-0
0-38-9-10-39-30-34-21-29-16-11-0
0-18-4-19-40-41-13-25-14-0
0-1-22-28-3-36-35-20-2-32-0
Cost: 495
0-5-37-15-44-42-17-12-0
0-6-23-43-7-26-31-8-27-0
0-38-9-10-39-30-34-21-29-16-11-0
0-18-4-19-40-41-13-25-14-0
0-1-22-28-3-36-35-20-2-32-0
Cost: 495
0-5-37-15-44-42-17-12-0
0-6-23-43-7-26-31-8-27-0
0-38-9-10-39-30-34-21-29-16-11-0
0-18-4-19-40-41-13-25-14-0
0-1-22-28-3-36-35-20-2-32-0
Cost: 495
0-5-37-15-44-42-17-12-0
0-6-23-43-7-26-31-8-27-0
0-38-9-10-39-30-34-21-29-16-11-0
0-18-4-19-40-41-13-25-14-0
0-1-22-28-3-36-35-20-2-32-0
Cost: 495
0-5-37-15-44-42-17-12-0
0-6-23-43-7-26-31-8-27-0
0-38-9-10-39-30-34-21-29-16-11-0
0-18-4-19-40-41-13-25-14-0
0-1-22-28-3-36-35-20-2-32-0
Cost: 495
0-5-37-15-44-42-17-12-0
0-6-23-43-7-26-31-8-27-0
0-38-9-10-39-30-34-21-29-16-11-0
0-18-4-19-40-41-13-25-14-0
0-1-22-28-3-36-35-20-2-32-0
Cost: 495
0-5-37-15-44-42-17-12-0
0-6-23-43-7-26-31-8-27-0
0-38-9-10-39-30-34-21-29-16-11-0
0-18-4-19-40-41-13-25-14-0
0-1-22-28-3-36-35-20-2-32-0
Cost: 495
0-5-37-15-44-42-17-12-0
0-6-23-43-7-26-31-8-27-0
0-38-9-10-39-30-34-21-29-16-11-0
0-18-4-19-40-41-13-25-14-0
0-1-22-28-3-36-35-20-2-32-0
Cost: 495
0-5-37-15-44-42-17-12-0
0-6-23-43-7-26-31-8-27-0
0-38-9-10-39-30-34-21-29-16-11-0
0-18-4-19-40-41-13-25-14-0
0-1-22-28-3-36-35-20-2-32-0
Cost: 495
0-5-37-15-44-42-17-12-0
0-6-23-43-7-26-31-8-27-0
0-38-9-10-39-30-34-21-29-16-11-0
0-18-4-19-40-41-13-25-14-0
0-1-22-28-3-36-35-20-2-32-0
Cost: 495
0-5-37-15-44-42-17-12-0
0-6-23-43-7-26-31-8-27-0
0-38-9-10-39-30-34-21-29-16-11-0
0-18-4-19-40-41-13-25-14-0
0-1-22-28-3-36-35-20-2-32-0
Cost: 495
0-5-37-15-44-42-17-12-0
0-6-23-43-7-26-31-8-27-0
0-38-9-10-39-30-34-21-29-16-11-0
0-18-4-19-40-41-13-25-14-0
0-1-22-28-3-36-35-20-2-32-0
Cost: 495
0-5-37-15-44-42-17-12-0
0-6-23-43-7-26-31-8-27-0
0-38-9-10-39-30-34-21-29-16-11-0
0-18-4-19-40-41-13-25-14-0
0-1-22-28-3-36-35-20-2-32-0
Cost: 495
0-5-37-15-44-42-17-12-0
0-6-23-43-7-26-31-8-27-0
0-38-9-10-39-30-34-21-29-16-11-0
0-18-4-19-40-41-13-25-14-0
0-1-22-28-3-36-35-20-2-32-0
Cost: 495
0-5-37-15-44-42-17-12-0
0-6-23-43-7-26-31-8-27-0
0-38-9-10-39-30-34-21-29-16-11-0
0-18-4-19-40-41-13-25-14-0
0-1-22-28-3-36-35-20-2-32-0
Cost: 495
0-5-37-15-44-42-17-12-0
0-6-23-43-7-26-31-8-27-0
0-38-9-10-39-30-34-21-29-16-11-0
0-18-4-19-40-41-13-25-14-0
0-1-22-28-3-36-35-20-2-32-0
Cost: 495
0-5-37-15-44-42-17-12-0
0-6-23-43-7-26-31-8-27-0
0-38-9-10-39-30-34-21-29-16-11-0
0-18-4-19-40-41-13-25-14-0
0-1-22-28-3-36-35-20-2-32-0
Cost: 495
0-5-37-15-44-42-17-12-0
0-6-23-43-7-26-31-8-27-0
0-38-9-10-39-30-34-21-29-16-11-0
0-18-4-19-40-41-13-25-14-0
0-1-22-28-3-36-35-20-2-32-0
Cost: 495
0-5-37-15-44-42-17-12-0
0-6-23-43-7-26-31-8-27-0
0-38-9-10-39-30-34-21-29-16-11-0
0-18-4-19-40-41-13-25-14-0
0-1-22-28-3-36-35-20-2-32-0
Cost: 495
0-5-37-15-44-42-17-12-0
0-6-23-43-7-26-31-8-27-0
0-38-9-10-39-30-34-21-29-16-11-0
0-18-4-19-40-41-13-25-14-0
0-1-22-28-3-36-35-20-2-32-0
Cost: 495
0-17-42-19-40-41-13-25-14-0
0-6-23-43-7-26-31-28-8-27-0
0-5-38-9-10-39-30-34-21-16-11-0
0-12-37-15-44-4-18-0
0-1-22-3-36-35-20-29-2-32-0
Cost: 495
0-5-37-15-44-42-17-12-0
0-6-23-43-7-26-31-8-27-0
0-38-9-10-39-30-34-21-29-16-11-0
0-18-4-19-40-41-13-25-14-0
0-1-22-28-3-36-35-20-2-32-0
Cost: 495
0-5-37-15-44-42-17-12-0
0-6-23-43-7-26-31-8-27-0
0-38-9-10-39-30-34-21-29-16-11-0
0-18-4-19-40-41-13-25-14-0
0-1-22-28-3-36-35-20-2-32-0
Cost: 495
0-5-37-15-44-42-17-12-0
0-6-23-43-7-26-31-8-27-0
0-38-9-10-39-30-34-21-29-16-11-0
0-18-4-19-40-41-13-25-14-0
0-1-22-28-3-36-35-20-2-32-0
Cost: 495
0-5-37-15-44-42-17-12-0
0-6-23-43-7-26-31-8-27-0
0-38-9-10-39-30-34-21-29-16-11-0
0-18-4-19-40-41-13-25-14-0
0-1-22-28-3-36-35-20-2-32-0
Cost: 495
0-5-37-15-44-42-17-12-0
0-14-25-13-41-40-19-4-18-0
0-1-22-28-3-36-35-20-2-32-0
0-6-23-43-7-26-31-8-27-0
0-38-9-10-39-30-34-21-29-16-11-0
Cost: 495
0-27-8-31-26-7-43-23-6-0
0-5-37-15-44-42-17-12-0
0-11-16-29-21-34-30-39-10-9-38-0
0-1-22-28-3-36-35-20-2-32-0
0-18-4-19-40-41-13-25-14-0
Cost: 495
0-5-37-15-44-42-17-12-0
0-6-23-43-7-26-31-8-27-0
0-38-9-10-39-30-34-21-29-16-11-0
0-18-4-19-40-41-13-25-14-0
0-1-22-28-3-36-35-20-2-32-0
Cost: 495
0-38-9-10-39-30-34-21-29-16-11-0
0-6-23-43-7-26-31-8-27-0
0-5-37-15-44-42-17-12-0
0-18-4-19-40-41-13-25-14-0
0-1-22-28-3-36-35-20-2-32-0
